
        $ From http://www.csplib.org/Problems/prob009/data/helmut.pdf
        $ Problem number 163
        $ Sequence length : 25
        language ESSENCE' 1.0
        letting sizemaster be 536
        letting sizes be sequence(3,5,9,11,12,21,24,27,30,44,45,50,54,55,57,63,95,117,123,134,140,145,156,257,279)
        